         Color_Count              Greedy              Dsatur                 SDL        Welsh_Powell                 RLF
                  16                   4                   4                   5                   4                   5
                  32                   5                   5                   7                   6                   7
                  64                   9                  10                  12                   8                   9
                 128                  14                  16                  17                  14                  15
                 256                  26                  28                  26                  24                  25
                 512                  45                  46                  44                  42                  43
                1024                  80                  85                  77                  71                  72
                2048                 140                 154                 131                 125                 126
